500
1000
380
380
378
376
375
375
374
372
371
370
370
370
369
369
368
368
365
365
365
364
363
362
361
360
359
359
357
354
354
353
353
352
350
349
349
349
349
349
348
347
347
346
345
345
342
341
340
340
339
338
337
337
337
335
334
334
334
333
333
332
331
331
329
329
329
328
328
327
326
325
325
324
324
323
322
320
320
320
320
319
318
317
314
314
314
313
313
312
309
306
306
305
303
303
303
302
302
301
301
301
299
299
297
296
296
295
295
294
293
293
293
292
292
292
292
291
291
291
289
289
288
288
288
287
286
286
286
286
285
284
284
284
283
283
283
282
280
279
278
278
277
277
276
276
275
274
271
271
270
270
269
269
269
268
268
268
267
267
267
266
265
265
265
263
263
262
262
260
259
258
258
258
258
257
256
256
255
255
254
254
254
252
252
252
251
250
250
249
249
247
246
246
244
244
242
242
241
241
241
241
241
240
238
237
236
236
232
231
230
229
229
229
228
228
228
226
225
224
223
222
221
221
220
219
219
219
218
217
215
214
213
212
211
210
210
210
209
209
209
208
207
207
207
207
206
206
205
205
204
202
202
202
200
199
199
198
196
195
192
192
191
191
191
190
190
189
188
186
186
184
184
184
183
183
183
182
182
182
182
180
180
180
179
179
179
178
178
178
177
176
176
176
175
175
174
174
174
174
171
170
170
169
167
167
166
163
161
160
159
157
156
156
156
156
155
154
154
153
152
151
151
151
150
150
150
148
148
146
146
146
145
145
144
144
144
144
144
142
142
141
140
138
138
137
136
133
132
132
131
131
131
131
130
129
128
126
125
123
123
123
121
121
120
120
120
120
120
120
118
117
116
116
114
114
112
112
112
112
108
108
107
107
106
104
104
104
103
103
100
98
98
95
94
94
94
93
93
93
92
92
89
89
89
88
87
86
86
83
83
81
80
80
79
79
77
77
76
76
76
76
76
75
75
75
74
74
74
74
74
73
73
71
71
71
71
70
69
68
68
68
67
67
67
65
62
62
62
61
60
60
59
58
58
57
57
56
55
55
55
55
53
53
53
51
50
50
50
50
48
48
47
46
46
45
44
43
43
40
38
36
35
33
33
32
32
32
31
29
28
27
25
25
25
24
24
24
24
22
22
22
